(declare-const a Real)
(declare-const b Real)
(declare-const c Real)
(assert (= (* a b c) 1))
(assert (> a 0))
(assert (> b 0))
(assert (> c 0))
(assert (not (<= (+ (* -1791448096 (pow b 4)) (* -1369920544 (pow a 4)) (* -3623878656 (pow a (pow 3 -1)) (pow b (/ 11 3))) (* -1811939328 (pow a (/ 10 3)) (pow b (/ 2 3))) (* 2050142080 b (pow a 3)) (* a (pow (+ (* 29968704 a) (* 6517075840 (pow b 3))) -1) (pow (+ (* 6517075840 (pow b 3)) (* 29968704 a b)) 2))) 0)))
(check-sat)
(get-model)
(exit)